unsat
(:cnf-encoding-aux-vars   121
 :eliminated-applications 3
 :eliminated-vars         100
 :max-memory              19.30
 :memory                  18.67
 :nlsat-conflicts         4
 :nlsat-decisions         6
 :nlsat-propagations      12
 :num-allocs              380668
 :rlimit-count            98871
 :time                    0.04
 :total-time              0.05)
